(set-info :source |printed by MathSAT|)
(declare-fun |.x{84}| () Int)
(declare-fun |.x{95}| () Int)
(declare-fun |.y{3}| () Int)
(declare-fun |.y{6}| () Int)
(declare-fun |.y{4}| () Int)
(declare-fun |.y{7}| () Int)
(declare-fun |.x{85}| () (Array Int Int))
(declare-fun |.x{96}| () (Array Int Int))
(declare-fun |.x{86}| () Int)
(declare-fun |.x{97}| () Int)
(declare-fun |.y{5}| () Int)
(declare-fun |.x{94}| () Int)
(declare-fun |.loc{3}| () Bool)
(declare-fun |.loc{5}| () Bool)
(declare-fun |.loc{4}| () Bool)
(declare-fun |.loc{6}| () Bool)
(declare-fun |.x{45}| () Int)
(declare-fun |.x{106}| () Int)
(declare-fun |.x{125}| () Int)
(define-fun .def_20 () Bool (! |.loc{3}| :next |.loc{5}|))
(define-fun .def_72 () Bool (not .def_20))
(define-fun .def_22 () Bool (! |.loc{4}| :next |.loc{6}|))
(define-fun .def_27 () Bool (not .def_22))
(define-fun .def_147 () Bool (! (and .def_27 .def_72) :init true))
(define-fun .def_14 () (Array Int Int) (! |.x{85}| :next |.x{96}|))
(define-fun .def_142 () Bool (= .def_14 |.x{96}|))
(define-fun .def_8 () Int (! |.x{84}| :next |.x{95}|))
(define-fun .def_87 () Bool (<= .def_8 0))
(define-fun .def_88 () Bool (not .def_87))
(define-fun .def_25 () Bool (= .def_8 |.x{95}|))
(define-fun .def_135 () Bool (and .def_25 .def_88))
(define-fun .def_130 () Bool (= |.x{94}| 0))
(define-fun .def_131 () Bool (and .def_72 .def_130))
(define-fun .def_16 () Int (! |.x{86}| :next |.x{97}|))
(define-fun .def_94 () Int (+ .def_8 .def_16))
(define-fun .def_95 () Int (select .def_14 .def_94))
(define-fun .def_96 () Bool (<= .def_95 (- 1)))
(define-fun .def_132 () Bool (and .def_96 .def_131))
(define-fun .def_99 () Bool (<= .def_94 0))
(define-fun .def_100 () Bool (not .def_99))
(define-fun .def_101 () Bool (or .def_87 .def_100))
(define-fun .def_133 () Bool (and .def_101 .def_132))
(define-fun .def_126 () Int (select .def_14 |.x{106}|))
(define-fun .def_127 () Bool (<= .def_126 (- 1)))
(define-fun .def_128 () Bool (not .def_127))
(define-fun .def_18 () Int (! |.y{5}| :next |.x{94}|))
(define-fun .def_120 () Bool (<= .def_16 .def_18))
(define-fun .def_121 () Bool (not .def_120))
(define-fun .def_57 () Int (* (- 1) |.x{106}|))
(define-fun .def_117 () Int (+ .def_18 .def_57))
(define-fun .def_118 () Int (+ .def_8 .def_117))
(define-fun .def_119 () Bool (= .def_118 0))
(define-fun .def_122 () Bool (and .def_119 .def_121))
(define-fun .def_64 () Bool (<= |.x{106}| 0))
(define-fun .def_65 () Bool (not .def_64))
(define-fun .def_116 () Bool (or .def_65 .def_87))
(define-fun .def_123 () Bool (and .def_116 .def_122))
(define-fun .def_113 () Int (* (- 1) |.x{94}|))
(define-fun .def_114 () Int (+ .def_18 .def_113))
(define-fun .def_115 () Bool (= .def_114 (- 1)))
(define-fun .def_124 () Bool (and .def_115 .def_123))
(define-fun .def_125 () Bool (and .def_20 .def_124))
(define-fun .def_129 () Bool (and .def_125 .def_128))
(define-fun .def_134 () Bool (or .def_129 .def_133))
(define-fun .def_136 () Bool (and .def_134 .def_135))
(define-fun .def_29 () Bool (= .def_16 |.x{97}|))
(define-fun .def_137 () Bool (and .def_29 .def_136))
(define-fun .def_138 () Bool (and .def_22 .def_137))
(define-fun .def_139 () Bool (and |.loc{5}| .def_138))
(define-fun .def_10 () Int (! |.y{3}| :next |.y{6}|))
(define-fun .def_107 () Bool (= |.x{95}| .def_10))
(define-fun .def_104 () Bool (= |.x{97}| 0))
(define-fun .def_90 () Bool (not |.loc{5}|))
(define-fun .def_103 () Bool (and .def_27 .def_90))
(define-fun .def_105 () Bool (and .def_103 .def_104))
(define-fun .def_12 () Int (! |.y{4}| :next |.y{7}|))
(define-fun .def_42 () Int (* 16777216 .def_16))
(define-fun .def_44 () Real (* (/ 1 16777216) (to_real .def_42)))
(define-fun .def_45 () Int (to_int .def_44))
(define-fun .def_46 () Bool (<= .def_45 .def_12))
(define-fun .def_106 () Bool (and .def_46 .def_105))
(define-fun .def_108 () Bool (and .def_106 .def_107))
(define-fun .def_109 () Bool (and .def_20 .def_108))
(define-fun .def_140 () Bool (or .def_109 .def_139))
(define-fun .def_97 () Bool (not .def_96))
(define-fun .def_83 () Int (* (- 1) |.x{97}|))
(define-fun .def_84 () Int (+ .def_16 .def_83))
(define-fun .def_85 () Bool (= .def_84 (- 1)))
(define-fun .def_86 () Bool (and .def_25 .def_85))
(define-fun .def_89 () Bool (and .def_86 .def_88))
(define-fun .def_91 () Bool (and .def_89 .def_90))
(define-fun .def_92 () Bool (and .def_22 .def_91))
(define-fun .def_93 () Bool (and .def_72 .def_92))
(define-fun .def_98 () Bool (and .def_93 .def_97))
(define-fun .def_102 () Bool (and .def_98 .def_101))
(define-fun .def_141 () Bool (or .def_102 .def_140))
(define-fun .def_143 () Bool (and .def_141 .def_142))
(define-fun .def_144 () Bool (and |.loc{6}| .def_143))
(define-fun .def_80 () Bool (<= |.y{6}| 0))
(define-fun .def_81 () Bool (not .def_80))
(define-fun .def_76 () Bool (<= |.x{97}| 0))
(define-fun .def_77 () Bool (not .def_76))
(define-fun .def_74 () Bool (= |.y{7}| 0))
(define-fun .def_70 () Bool (and .def_25 .def_27))
(define-fun .def_50 () Bool (not |.loc{6}|))
(define-fun .def_71 () Bool (and .def_50 .def_70))
(define-fun .def_73 () Bool (and .def_71 .def_72))
(define-fun .def_75 () Bool (and .def_73 .def_74))
(define-fun .def_78 () Bool (and .def_75 .def_77))
(define-fun .def_79 () Bool (and |.loc{5}| .def_78))
(define-fun .def_82 () Bool (and .def_79 .def_81))
(define-fun .def_145 () Bool (or .def_82 .def_144))
(define-fun .def_63 () Bool (<= .def_10 0))
(define-fun .def_68 () Bool (not .def_63))
(define-fun .def_66 () Bool (or .def_63 .def_65))
(define-fun .def_58 () Int (+ .def_12 .def_57))
(define-fun .def_59 () Int (+ .def_10 .def_58))
(define-fun .def_60 () Bool (= .def_59 0))
(define-fun .def_47 () Bool (not .def_46))
(define-fun .def_38 () (Array Int Int) (store .def_14 |.x{106}| |.x{45}|))
(define-fun .def_39 () Bool (= |.x{96}| .def_38))
(define-fun .def_32 () Int (* (- 1) |.y{7}|))
(define-fun .def_33 () Int (+ .def_12 .def_32))
(define-fun .def_34 () Bool (= .def_33 (- 1)))
(define-fun .def_24 () Bool (= .def_10 |.y{6}|))
(define-fun .def_26 () Bool (and .def_24 .def_25))
(define-fun .def_28 () Bool (and .def_26 .def_27))
(define-fun .def_30 () Bool (and .def_28 .def_29))
(define-fun .def_35 () Bool (and .def_30 .def_34))
(define-fun .def_40 () Bool (and .def_35 .def_39))
(define-fun .def_48 () Bool (and .def_40 .def_47))
(define-fun .def_49 () Bool (and .def_20 .def_48))
(define-fun .def_51 () Bool (and .def_49 .def_50))
(define-fun .def_61 () Bool (and .def_51 .def_60))
(define-fun .def_62 () Bool (and |.loc{5}| .def_61))
(define-fun .def_67 () Bool (and .def_62 .def_66))
(define-fun .def_69 () Bool (and .def_67 .def_68))
(define-fun .def_146 () Bool (! (or .def_69 .def_145) :trans true))
(define-fun .def_148 () Int (! |.x{125}| :next |.xpv{1}|))
(define-fun .def_162 () Bool (and .def_20 .def_22))
(define-fun .def_159 () Int (select .def_14 .def_148))
(define-fun .def_160 () Bool (<= .def_159 (- 1)))
(define-fun .def_152 () Int (* (- 1) .def_148))
(define-fun .def_153 () Int (+ .def_18 .def_152))
(define-fun .def_154 () Int (+ .def_8 .def_153))
(define-fun .def_155 () Bool (= .def_154 0))
(define-fun .def_156 () Bool (and .def_121 .def_155))
(define-fun .def_149 () Bool (<= .def_148 0))
(define-fun .def_150 () Bool (not .def_149))
(define-fun .def_151 () Bool (or .def_87 .def_150))
(define-fun .def_157 () Bool (and .def_151 .def_156))
(define-fun .def_158 () Bool (and .def_88 .def_157))
(define-fun .def_161 () Bool (and .def_158 .def_160))
(define-fun .def_163 () Bool (and .def_161 .def_162))
(define-fun .def_165 () Bool (! (not .def_163) :invar-property 0))
(assert true)
